<?xml version = "1.0" encoding="UTF-8" standalone="yes"?>
<CPLEXSolution version="1.2">
 <header
   problemName="../models/pnasnet-mobile/redmi/ilp/subgraphs-cell_stem_0.lp"
   solutionName="incumbent"
   solutionIndex="-1"
   objectiveValue="18.275909997000095"
   solutionTypeValue="3"
   solutionTypeString="primal"
   solutionStatusValue="101"
   solutionStatusString="integer optimal solution"
   solutionMethodString="mip"
   primalFeasible="1"
   dualFeasible="1"
   MIPNodes="0"
   MIPIterations="221"
   writeLevel="1"/>
 <quality
   epInt="1.0000000000000001e-05"
   epRHS="9.9999999999999995e-07"
   maxIntInfeas="2.0000463507585663e-12"
   maxPrimalInfeas="9.999894245993346e-10"
   maxX="1013.960820997"
   maxSlack="3001.3028209980002"/>
 <linearConstraints>
  <constraint name="c1" index="0" slack="-18.275909997000095"/>
  <constraint name="c2" index="1" slack="-1013.0862319970001"/>
  <constraint name="c3" index="2" slack="-1018.2759099970001"/>
  <constraint name="c4" index="3" slack="-9.755398997000043"/>
  <constraint name="c5" index="4" slack="-1018.2759099970001"/>
  <constraint name="c6" index="5" slack="-10.814498997000101"/>
  <constraint name="c7" index="6" slack="-18.275909997000095"/>
  <constraint name="c8" index="7" slack="-1007.2460549970001"/>
  <constraint name="c9" index="8" slack="-1018.2759099970001"/>
  <constraint name="c10" index="9" slack="-6.9122429990001137"/>
  <constraint name="c11" index="10" slack="-18.275909997000095"/>
  <constraint name="c12" index="11" slack="-1005.3831989970001"/>
  <constraint name="c13" index="12" slack="-1018.2759099970001"/>
  <constraint name="c14" index="13" slack="-1.6655100000001539"/>
  <constraint name="c15" index="14" slack="-18.275909997000095"/>
  <constraint name="c16" index="15" slack="-1001.0179209990001"/>
  <constraint name="c17" index="16" slack="-1018.2759099970001"/>
  <constraint name="c18" index="17" slack="-3.3586099990000093"/>
  <constraint name="c19" index="18" slack="-18.275909997000095"/>
  <constraint name="c20" index="19" slack="-1008.2150639970001"/>
  <constraint name="c21" index="20" slack="-1018.2759099970001"/>
  <constraint name="c22" index="21" slack="0"/>
  <constraint name="c23" index="22" slack="-18.275909997000095"/>
  <constraint name="c24" index="23" slack="0"/>
  <constraint name="c25" index="24" slack="-1018.2759099970001"/>
  <constraint name="c26" index="25" slack="-15.1783769970001"/>
  <constraint name="c27" index="26" slack="-18.275909997000095"/>
  <constraint name="c28" index="27" slack="-1014.3567099970001"/>
  <constraint name="c29" index="28" slack="0"/>
  <constraint name="c30" index="29" slack="0"/>
  <constraint name="c31" index="30" slack="0"/>
  <constraint name="c32" index="31" slack="0"/>
  <constraint name="c33" index="32" slack="0"/>
  <constraint name="c34" index="33" slack="0"/>
  <constraint name="c35" index="34" slack="0"/>
  <constraint name="c36" index="35" slack="-999"/>
  <constraint name="c37" index="36" slack="0"/>
  <constraint name="c38" index="37" slack="-2992.5385889999998"/>
  <constraint name="c39" index="38" slack="-999"/>
  <constraint name="c40" index="39" slack="0"/>
  <constraint name="c41" index="40" slack="-2988.9701449999998"/>
  <constraint name="c42" index="41" slack="-999"/>
  <constraint name="c43" index="42" slack="0"/>
  <constraint name="c44" index="43" slack="-2988.6363330019999"/>
  <constraint name="c45" index="44" slack="-999"/>
  <constraint name="c46" index="45" slack="0"/>
  <constraint name="c47" index="46" slack="-2987.107289"/>
  <constraint name="c48" index="47" slack="-999"/>
  <constraint name="c49" index="48" slack="0"/>
  <constraint name="c50" index="49" slack="-2983.3896000029999"/>
  <constraint name="c51" index="50" slack="-999"/>
  <constraint name="c52" index="51" slack="0"/>
  <constraint name="c53" index="52" slack="-2982.7420110020003"/>
  <constraint name="c54" index="53" slack="-999"/>
  <constraint name="c55" index="54" slack="0"/>
  <constraint name="c56" index="55" slack="-2985.0827000019999"/>
  <constraint name="c57" index="56" slack="-999"/>
  <constraint name="c58" index="57" slack="0"/>
  <constraint name="c59" index="58" slack="-2989.9391539999997"/>
  <constraint name="c60" index="59" slack="-1011.4207219970001"/>
  <constraint name="c61" index="60" slack="-8.0898889970000027"/>
  <constraint name="c62" index="61" slack="-2008.771142997"/>
  <constraint name="c63" index="62" slack="-1005.440309997"/>
  <constraint name="c64" index="63" slack="-999"/>
  <constraint name="c65" index="64" slack="0"/>
  <constraint name="c66" index="65" slack="-2996.9024669999999"/>
  <constraint name="c67" index="66" slack="-999"/>
  <constraint name="c68" index="67" slack="0"/>
  <constraint name="c69" index="68" slack="-2996.0807999999997"/>
  <constraint name="c70" index="69" slack="-999"/>
  <constraint name="c71" index="70" slack="0"/>
  <constraint name="c72" index="71" slack="-1997.9078550000002"/>
  <constraint name="c73" index="72" slack="-999"/>
  <constraint name="c74" index="73" slack="0"/>
  <constraint name="c75" index="74" slack="-1994.5770220000002"/>
  <constraint name="c76" index="75" slack="0"/>
  <constraint name="c77" index="76" slack="-999"/>
  <constraint name="c78" index="77" slack="-991.73386600000003"/>
  <constraint name="c79" index="78" slack="-998"/>
  <constraint name="c80" index="79" slack="-1"/>
  <constraint name="c81" index="80" slack="-2990.2048220000001"/>
  <constraint name="c82" index="81" slack="0"/>
  <constraint name="c83" index="82" slack="-999"/>
  <constraint name="c84" index="83" slack="-986.48713300300005"/>
  <constraint name="c85" index="84" slack="-998"/>
  <constraint name="c86" index="85" slack="-1"/>
  <constraint name="c87" index="86" slack="-2985.8395440019999"/>
  <constraint name="c88" index="87" slack="0"/>
  <constraint name="c89" index="88" slack="-999"/>
  <constraint name="c90" index="89" slack="-988.18023300200002"/>
  <constraint name="c91" index="90" slack="-998"/>
  <constraint name="c92" index="91" slack="-1"/>
  <constraint name="c93" index="92" slack="-2993.0366869999998"/>
  <constraint name="c94" index="93" slack="-9.1489889970000604"/>
  <constraint name="c95" index="94" slack="-1005.5805449970001"/>
  <constraint name="c96" index="95" slack="-1006.499409997"/>
  <constraint name="c97" index="96" slack="-2002.9309659969999"/>
  <constraint name="c98" index="97" slack="0"/>
  <constraint name="c99" index="98" slack="-999.17833299999995"/>
  <constraint name="c100" index="99" slack="0"/>
  <constraint name="c101" index="100" slack="-999.17833299999995"/>
  <constraint name="c102" index="101" slack="-999"/>
  <constraint name="c103" index="102" slack="0"/>
  <constraint name="c104" index="103" slack="-2002.2717329980001"/>
  <constraint name="c105" index="104" slack="-999"/>
  <constraint name="c106" index="105" slack="0"/>
  <constraint name="c107" index="106" slack="-1994.5770220000002"/>
  <constraint name="c108" index="107" slack="0"/>
  <constraint name="c109" index="108" slack="-999"/>
  <constraint name="c110" index="109" slack="0"/>
  <constraint name="c111" index="110" slack="-998"/>
  <constraint name="c112" index="111" slack="-1"/>
  <constraint name="c113" index="112" slack="-1992.0676779999999"/>
  <constraint name="c114" index="113" slack="-3.553632999000115"/>
  <constraint name="c115" index="114" slack="-1002.024588997"/>
  <constraint name="c116" index="115" slack="-1.1368683772161603e-13"/>
  <constraint name="c117" index="116" slack="-998.47095599800002"/>
  <constraint name="c118" index="117" slack="0"/>
  <constraint name="c119" index="118" slack="-999"/>
  <constraint name="c120" index="119" slack="-992.54411099999993"/>
  <constraint name="c121" index="120" slack="-998"/>
  <constraint name="c122" index="121" slack="-1"/>
  <constraint name="c123" index="122" slack="-2993.0366869999998"/>
  <constraint name="c124" index="123" slack="-5.2467329990001872"/>
  <constraint name="c125" index="124" slack="-1003.7176889970001"/>
  <constraint name="c126" index="125" slack="-1002.5971539990002"/>
  <constraint name="c127" index="126" slack="-2001.0681099970002"/>
  <constraint name="c128" index="127" slack="-4.3638779979999072"/>
  <constraint name="c129" index="128" slack="-1003.5422109979999"/>
  <constraint name="c130" index="129" slack="0"/>
  <constraint name="c131" index="130" slack="-999.17833299999995"/>
  <constraint name="c132" index="131" slack="-999"/>
  <constraint name="c133" index="132" slack="0"/>
  <constraint name="c134" index="133" slack="-2009.7276219970001"/>
  <constraint name="c135" index="134" slack="-999"/>
  <constraint name="c136" index="135" slack="0"/>
  <constraint name="c137" index="136" slack="-2002.8431559979999"/>
  <constraint name="c138" index="137" slack="0"/>
  <constraint name="c139" index="138" slack="-999"/>
  <constraint name="c140" index="139" slack="-7.4558889970000273"/>
  <constraint name="c141" index="140" slack="-998"/>
  <constraint name="c142" index="141" slack="-1"/>
  <constraint name="c143" index="142" slack="-2000.3338119979999"/>
  <constraint name="c144" index="143" slack="0"/>
  <constraint name="c145" index="144" slack="-999"/>
  <constraint name="c146" index="145" slack="9.999894245993346e-10"/>
  <constraint name="c147" index="146" slack="-998"/>
  <constraint name="c148" index="147" slack="-1"/>
  <constraint name="c149" index="148" slack="-3001.3028209980002"/>
  <constraint name="c150" index="149" slack="-1.1368683772161603e-13"/>
  <constraint name="c151" index="150" slack="-999.35241099900009"/>
  <constraint name="c152" index="151" slack="-997.3504210000001"/>
  <constraint name="c153" index="152" slack="-1996.702831999"/>
  <constraint name="c154" index="153" slack="-11.819766996999988"/>
  <constraint name="c155" index="154" slack="-1010.9980999969999"/>
  <constraint name="c156" index="155" slack="-8.2661339979999866"/>
  <constraint name="c157" index="156" slack="-1007.4444669979999"/>
  <constraint name="c158" index="157" slack="-999"/>
  <constraint name="c159" index="158" slack="0"/>
  <constraint name="c160" index="159" slack="-2006.1739889980001"/>
  <constraint name="c161" index="160" slack="-999"/>
  <constraint name="c162" index="161" slack="0"/>
  <constraint name="c163" index="162" slack="-1994.5770220000002"/>
  <constraint name="c164" index="163" slack="0"/>
  <constraint name="c165" index="164" slack="-999"/>
  <constraint name="c166" index="165" slack="-3.9022559980000011"/>
  <constraint name="c167" index="166" slack="-998"/>
  <constraint name="c168" index="167" slack="-1"/>
  <constraint name="c169" index="168" slack="-1992.0676779999999"/>
  <constraint name="c170" index="169" slack="0"/>
  <constraint name="c171" index="170" slack="-999"/>
  <constraint name="c172" index="171" slack="-4.75175454539567e-14"/>
  <constraint name="c173" index="172" slack="-998"/>
  <constraint name="c174" index="173" slack="-1"/>
  <constraint name="c175" index="174" slack="-1990.2048219999999"/>
  <constraint name="c176" index="175" slack="0"/>
  <constraint name="c177" index="176" slack="-999"/>
  <constraint name="c178" index="177" slack="-994.75326700100004"/>
  <constraint name="c179" index="178" slack="-998"/>
  <constraint name="c180" index="179" slack="-1"/>
  <constraint name="c181" index="180" slack="-1985.8395440019999"/>
  <constraint name="c182" index="181" slack="-1.6930999990000828"/>
  <constraint name="c183" index="182" slack="-1006.5495539970001"/>
  <constraint name="c184" index="183" slack="-999.04352099900007"/>
  <constraint name="c185" index="184" slack="-2003.8999749970001"/>
  <constraint name="c186" index="185" slack="-8.2661339979999866"/>
  <constraint name="c187" index="186" slack="-1007.4444669979999"/>
  <constraint name="c188" index="187" slack="0"/>
  <constraint name="c189" index="188" slack="-999.17833299999995"/>
  <constraint name="c190" index="189" slack="-999"/>
  <constraint name="c191" index="190" slack="0"/>
  <constraint name="c192" index="191" slack="-1994.810322"/>
  <constraint name="c193" index="192" slack="-999"/>
  <constraint name="c194" index="193" slack="0"/>
  <constraint name="c195" index="194" slack="-1991.4794890000001"/>
 </linearConstraints>
 <variables>
  <variable name="tt" index="0" value="18.275909997000095"/>
  <variable name="s_1_1" index="1" value="0"/>
  <variable name="t_1_1" index="2" value="0"/>
  <variable name="s_2_1" index="3" value="1"/>
  <variable name="t_2_1" index="4" value="0"/>
  <variable name="s_1_2" index="5" value="1"/>
  <variable name="t_1_2" index="6" value="3.0975329999999985"/>
  <variable name="s_1_7" index="7" value="1"/>
  <variable name="s_2_2" index="8" value="0"/>
  <variable name="t_2_2" index="9" value="3.0975329999999985"/>
  <variable name="s_2_7" index="10" value="0"/>
  <variable name="s_1_3" index="11" value="1"/>
  <variable name="t_1_3" index="12" value="7.4614109979999519"/>
  <variable name="s_2_3" index="13" value="0"/>
  <variable name="t_2_3" index="14" value="3.0975329999999985"/>
  <variable name="s_1_4" index="15" value="1"/>
  <variable name="t_1_4" index="16" value="14.917299997000026"/>
  <variable name="s_2_4" index="17" value="0"/>
  <variable name="t_2_4" index="18" value="11.363666997999974"/>
  <variable name="s_1_5" index="19" value="1"/>
  <variable name="t_1_5" index="20" value="11.363666997999999"/>
  <variable name="s_2_5" index="21" value="0"/>
  <variable name="t_2_5" index="22" value="3.0975329999999985"/>
  <variable name="s_1_6" index="23" value="1"/>
  <variable name="t_1_6" index="24" value="16.610399997000041"/>
  <variable name="s_2_6" index="25" value="0"/>
  <variable name="t_2_6" index="26" value="1013.960820997"/>
  <variable name="t_1_7" index="27" value="0"/>
  <variable name="t_2_7" index="28" value="0"/>
  <variable name="r_1_1_2" index="29" value="1"/>
  <variable name="u_1_1_2" index="30" value="0"/>
  <variable name="r_2_1_2" index="31" value="1"/>
  <variable name="u_2_1_2" index="32" value="0"/>
  <variable name="r_1_1_3" index="33" value="1"/>
  <variable name="u_1_1_3" index="34" value="0"/>
  <variable name="r_2_1_3" index="35" value="1"/>
  <variable name="u_2_1_3" index="36" value="0"/>
  <variable name="r_1_1_4" index="37" value="1"/>
  <variable name="u_1_1_4" index="38" value="0"/>
  <variable name="r_2_1_4" index="39" value="1"/>
  <variable name="u_2_1_4" index="40" value="0"/>
  <variable name="r_1_1_5" index="41" value="1"/>
  <variable name="u_1_1_5" index="42" value="0"/>
  <variable name="r_2_1_5" index="43" value="1"/>
  <variable name="u_2_1_5" index="44" value="0"/>
  <variable name="r_1_1_7" index="45" value="1"/>
  <variable name="u_1_1_7" index="46" value="0"/>
  <variable name="r_2_1_7" index="47" value="1"/>
  <variable name="u_2_1_7" index="48" value="0"/>
  <variable name="r_1_2_3" index="49" value="0"/>
  <variable name="u_1_2_3" index="50" value="2.0000463507585663e-12"/>
  <variable name="r_2_2_3" index="51" value="1"/>
  <variable name="u_2_2_3" index="52" value="0"/>
  <variable name="r_1_2_4" index="53" value="0"/>
  <variable name="u_1_2_4" index="54" value="-0"/>
  <variable name="r_2_2_4" index="55" value="1"/>
  <variable name="u_2_2_4" index="56" value="0"/>
  <variable name="r_1_2_5" index="57" value="0"/>
  <variable name="u_1_2_5" index="58" value="0"/>
  <variable name="r_2_2_5" index="59" value="1"/>
  <variable name="u_2_2_5" index="60" value="0"/>
  <variable name="r_1_3_5" index="61" value="0"/>
  <variable name="u_1_3_5" index="62" value="0"/>
  <variable name="r_2_3_5" index="63" value="1"/>
  <variable name="u_2_3_5" index="64" value="0"/>
  <variable name="r_1_4_5" index="65" value="0"/>
  <variable name="u_1_4_5" index="66" value="1"/>
  <variable name="r_2_4_5" index="67" value="1"/>
  <variable name="u_2_4_5" index="68" value="0"/>
 </variables>
</CPLEXSolution>
